v0.3.3/problems/paskin/paskin.td
s td 4 3 6
b 1 2 4
b 2 1 2 3
b 3 2 3 5
b 4 2 5 6
1 3
2 3
3 4
