v0.4.2/problems/paskin/paskin.uai
MARKOV
6
3 2 2 2 2 2
7
2 0 2
2 0 1
2 1 3
2 2 4
2 1 4
2 1 5
2 4 5

6
 0.128 0.872 0.920 0.080 0.128 0.872 

6
 0.128 0.872 0.920 0.080 0.128 0.872 

4
 0.128 0.872 0.920 0.080

4
 0.128 0.872 0.920 0.080

4
 0.128 0.872 0.920 0.080

4
 0.128 0.872 0.920 0.080

4
 0.128 0.872 0.920 0.080
